Version identifier: 22.1.0.0 | 2022-03-09 | 1a383f8ce
CPXPARAM_Read_DataCheck                          1
CPXPARAM_Threads                                 1
CPXPARAM_TimeLimit                               3600
Tried aggregator 2 times.
MIP Presolve eliminated 274 rows and 19 columns.
MIP Presolve modified 4113 coefficients.
Aggregator did 38 substitutions.
Reduced MIP has 1119 rows, 183 columns, and 7220 nonzeros.
Reduced MIP has 128 binaries, 0 generals, 0 SOSs, and 0 indicators.
Presolve time = 0.02 sec. (11.70 ticks)
Found incumbent of value 107.184931 after 0.03 sec. (16.69 ticks)
Probing time = 0.00 sec. (1.21 ticks)
Tried aggregator 1 time.
Detecting symmetries...
Reduced MIP has 1119 rows, 183 columns, and 7220 nonzeros.
Reduced MIP has 128 binaries, 0 generals, 0 SOSs, and 0 indicators.
Presolve time = 0.01 sec. (3.43 ticks)
Probing time = 0.00 sec. (1.16 ticks)
Clique table members: 94.
MIP emphasis: balance optimality and feasibility.
MIP search method: dynamic search.
Parallel mode: none, using 1 thread.
Root relaxation solution time = 0.00 sec. (3.56 ticks)

        Nodes                                         Cuts/
   Node  Left     Objective  IInf  Best Integer    Best Bound    ItCnt     Gap

*     0+    0                          107.1849       69.1893            35.45%
      0     0       69.1893    40      107.1849       69.1893      100   35.45%
      0     0       69.1893    26      107.1849      Cuts: 94      230   35.45%
      0     0       69.2112    31      107.1849     Cuts: 154      419   35.43%
      0     0       69.2720    46      107.1849     Cuts: 222      507   35.37%
      0     0       69.3791    56      107.1849     Cuts: 167      585   35.27%
      0     0       69.4185    54      107.1849     Cuts: 122      725   35.23%
Detecting symmetries...
      0     0       69.4400    50      107.1849     Cuts: 104      778   35.21%
      0     0       69.4878    67      107.1849      Cuts: 80      842   35.17%
      0     0       69.5746    64      107.1849     Cuts: 120      906   35.09%
      0     0       69.5829    57      107.1849     Cuts: 158      968   35.08%
      0     0       69.6040    55      107.1849     Cuts: 101     1015   35.06%
      0     0       69.6084    60      107.1849      Cuts: 90     1065   35.06%
      0     0       69.6111    48      107.1849      Cuts: 87     1127   35.06%
      0     0       69.6119    47      107.1849     Cuts: 207     1156   35.05%
*     0+    0                          104.5245       69.6119            33.40%
Detecting symmetries...
      0     2       69.6119    39      104.5245       69.6194     1156   33.39%
Elapsed time = 0.47 sec. (325.77 ticks, tree = 0.01 MB, solutions = 2)
*    10+    8                           74.9275       69.7242             6.94%
    167    90        cutoff             74.9275       70.3996     5162    6.04%
    312   110        cutoff             74.9275       71.4012     9401    4.71%
    458   121        cutoff             74.9275       72.0789    14920    3.80%
    623   102       74.5608    11       74.9275       72.8306    20091    2.80%

GUB cover cuts applied:  8
Cover cuts applied:  119
Implied bound cuts applied:  17
Flow cuts applied:  6
Mixed integer rounding cuts applied:  72
Zero-half cuts applied:  1
Gomory fractional cuts applied:  1

Root node processing (before b&c):
  Real time             =    0.48 sec. (325.77 ticks)
Sequential b&c:
  Real time             =    1.34 sec. (1191.09 ticks)
                          ------------
Total (root+branch&cut) =    1.81 sec. (1516.85 ticks)
